c nombre: 6
c densidad: 0.1
p edges 30 44
e 1 10
e 1 11
e 1 24
e 1 26
e 1 27
e 2 9
e 2 12
e 2 20
e 3 29
e 4 24
e 4 26
e 5 19
e 5 27
e 5 30
e 6 16
e 6 17
e 6 19
e 6 23
e 6 26
e 7 12
e 7 28
e 7 30
e 8 26
e 9 17
e 11 15
e 11 19
e 11 27
e 12 15
e 12 29
e 12 30
e 13 17
e 13 26
e 13 28
e 14 30
e 16 21
e 16 29
e 21 26
e 21 27
e 22 26
e 22 27
e 25 26
e 26 28
e 26 29
e 28 29
